p tw 176 39601 2 
1 3 
1 4 
1 5 
1 6 
1 7 
1 8 
1 9 
1 10 
1 11 
1 12 
1 13 
1 14 
1 15 
1 16 
1 17 
1 18 
1 19 
1 20 
1 21 
1 22 
1 23 
1 24 
1 25 
1 26 
1 27 
1 28 
1 29 
1 30 
1 31 
1 37 
1 53 
1 64 
1 74 
1 84 
1 95 
1 119 
1 126 
1 134 
1 135 
1 136 
1 137 
1 138 
1 139 
1 140 
2 3 
2 4 
2 5 
2 6 
2 7 
2 8 
2 9 
2 10 
2 11 
2 12 
2 13 
2 14 
2 15 
2 16 
2 17 
2 31 
2 32 
2 33 
2 34 
2 35 
2 36 
2 37 
2 38 
2 39 
2 40 
2 41 
2 42 
2 43 
2 44 
2 45 
2 51 
2 69 
2 71 
2 97 
2 104 
2 117 
2 131 
2 134 
2 157 
2 161 
2 162 
2 172 
2 173 
2 176 
3 4 
3 5 
3 6 
3 7 
3 8 
3 9 
3 10 
3 11 
3 12 
3 13 
3 14 
3 15 
3 16 
3 18 
3 22 
3 32 
3 44 
3 46 
3 47 
3 48 
3 49 
3 50 
3 51 
3 52 
3 53 
3 54 
3 55 
3 56 
3 57 
3 58 
3 67 
3 79 
3 89 
3 107 
3 114 
3 122 
3 131 
3 135 
3 144 
3 156 
3 158 
3 164 
3 165 
4 5 
4 6 
4 7 
4 8 
4 9 
4 10 
4 11 
4 12 
4 13 
4 14 
4 15 
4 16 
4 19 
4 25 
4 33 
4 39 
4 46 
4 51 
4 59 
4 60 
4 61 
4 62 
4 63 
4 64 
4 65 
4 66 
4 67 
4 68 
4 69 
4 70 
4 75 
4 83 
4 93 
4 103 
4 110 
4 119 
4 120 
4 121 
4 122 
4 123 
4 124 
4 125 
5 6 
5 7 
5 8 
5 9 
5 10 
5 11 
5 12 
5 13 
5 14 
5 15 
5 16 
5 20 
5 30 
5 34 
5 45 
5 47 
5 48 
5 59 
5 68 
5 71 
5 72 
5 73 
5 74 
5 75 
5 76 
5 77 
5 78 
5 79 
5 80 
5 81 
5 93 
5 109 
5 118 
5 130 
5 139 
5 146 
5 150 
5 155 
5 161 
5 164 
5 171 
6 7 
6 8 
6 9 
6 10 
6 11 
6 12 
6 13 
6 14 
6 15 
6 16 
6 21 
6 22 
6 35 
6 36 
6 48 
6 49 
6 60 
6 61 
6 71 
6 72 
6 82 
6 83 
6 84 
6 85 
6 86 
6 87 
6 88 
6 89 
6 90 
6 91 
6 92 
6 93 
6 94 
6 95 
6 96 
6 97 
6 98 
6 99 
6 100 
6 101 
7 8 
7 9 
7 10 
7 11 
7 12 
7 13 
7 14 
7 15 
7 16 
7 21 
7 23 
7 37 
7 40 
7 50 
7 52 
7 62 
7 63 
7 73 
7 76 
7 82 
7 92 
7 94 
7 102 
7 103 
7 104 
7 105 
7 106 
7 107 
7 108 
7 109 
7 110 
7 126 
7 127 
7 128 
7 129 
7 130 
7 131 
7 132 
7 133 
8 9 
8 10 
8 11 
8 12 
8 13 
8 14 
8 15 
8 16 
8 24 
8 26 
8 38 
8 39 
8 49 
8 54 
8 60 
8 65 
8 73 
8 74 
8 85 
8 94 
8 102 
8 110 
8 111 
8 112 
8 113 
8 114 
8 115 
8 116 
8 117 
8 118 
8 134 
8 141 
8 142 
8 143 
8 144 
8 145 
8 146 
8 147 
9 10 
9 11 
9 12 
9 13 
9 14 
9 15 
9 16 
9 17 
9 18 
9 34 
9 57 
9 66 
9 69 
9 72 
9 86 
9 91 
9 96 
9 102 
9 104 
9 111 
9 120 
9 123 
9 126 
9 127 
9 135 
9 141 
9 145 
9 148 
9 149 
9 150 
9 151 
9 155 
9 156 
9 160 
9 163 
9 169 
9 174 
10 11 
10 12 
10 13 
10 14 
10 15 
10 16 
10 25 
10 26 
10 32 
10 40 
10 56 
10 67 
10 70 
10 77 
10 81 
10 82 
10 87 
10 97 
10 100 
10 105 
10 111 
10 112 
10 122 
10 128 
10 136 
10 139 
10 142 
10 151 
10 152 
10 153 
10 154 
10 155 
10 160 
10 167 
10 170 
10 176 
11 12 
11 13 
11 14 
11 15 
11 16 
11 19 
11 27 
11 38 
11 41 
11 47 
11 55 
11 68 
11 77 
11 88 
11 90 
11 95 
11 98 
11 103 
11 108 
11 112 
11 123 
11 128 
11 129 
11 137 
11 141 
11 143 
11 148 
11 156 
11 157 
11 159 
11 162 
11 164 
11 166 
11 167 
11 168 
12 13 
12 14 
12 15 
12 16 
12 28 
12 31 
12 42 
12 44 
12 50 
12 54 
12 59 
12 70 
12 76 
12 86 
12 90 
12 99 
12 101 
12 106 
12 113 
12 118 
12 119 
12 125 
12 129 
12 140 
12 143 
12 149 
12 152 
12 154 
12 158 
12 159 
12 160 
12 161 
12 174 
12 175 
13 14 
13 15 
13 16 
13 24 
13 29 
13 42 
13 43 
13 46 
13 55 
13 65 
13 78 
13 79 
13 84 
13 91 
13 98 
13 100 
13 105 
13 106 
13 114 
13 121 
13 125 
13 130 
13 133 
13 138 
13 147 
13 149 
13 151 
13 153 
13 162 
13 163 
13 168 
13 171 
13 173 
14 15 
14 16 
14 23 
14 27 
14 33 
14 35 
14 52 
14 53 
14 64 
14 78 
14 80 
14 83 
14 99 
14 101 
14 108 
14 115 
14 116 
14 120 
14 133 
14 144 
14 145 
14 150 
14 152 
14 153 
14 157 
14 165 
14 167 
14 169 
14 170 
14 171 
14 172 
14 175 
15 16 
15 20 
15 30 
15 43 
15 45 
15 56 
15 58 
15 61 
15 62 
15 80 
15 85 
15 88 
15 96 
15 107 
15 116 
15 117 
15 121 
15 124 
15 127 
15 132 
15 137 
15 138 
15 142 
15 154 
15 158 
15 159 
15 166 
15 169 
15 170 
15 173 
15 174 
16 28 
16 29 
16 36 
16 41 
16 57 
16 58 
16 63 
16 66 
16 75 
16 81 
16 87 
16 89 
16 92 
16 109 
16 113 
16 115 
16 124 
16 132 
16 136 
16 140 
16 146 
16 147 
16 148 
16 163 
16 165 
16 166 
16 168 
16 172 
16 175 
16 176 
17 18 
17 19 
17 20 
17 21 
17 22 
17 23 
17 24 
17 25 
17 26 
17 27 
17 28 
17 29 
17 30 
17 31 
17 32 
17 33 
17 34 
17 35 
17 36 
17 37 
17 38 
17 39 
17 40 
17 41 
17 42 
17 43 
17 44 
17 45 
17 57 
17 69 
17 72 
17 91 
17 102 
17 123 
17 126 
17 145 
17 155 
17 156 
17 160 
17 163 
17 169 
17 174 
18 19 
18 20 
18 21 
18 22 
18 23 
18 24 
18 25 
18 26 
18 27 
18 28 
18 29 
18 30 
18 31 
18 32 
18 34 
18 46 
18 47 
18 48 
18 49 
18 50 
18 51 
18 52 
18 53 
18 54 
18 55 
18 56 
18 57 
18 58 
18 66 
18 86 
18 96 
18 104 
18 111 
18 120 
18 127 
18 135 
18 141 
18 148 
18 149 
18 150 
18 151 
19 20 
19 21 
19 22 
19 23 
19 24 
19 25 
19 26 
19 27 
19 28 
19 29 
19 30 
19 31 
19 33 
19 38 
19 46 
19 47 
19 59 
19 60 
19 61 
19 62 
19 63 
19 64 
19 65 
19 66 
19 67 
19 68 
19 69 
19 70 
19 90 
19 95 
19 108 
19 123 
19 128 
19 141 
19 159 
19 162 
19 164 
19 166 
19 167 
19 168 
20 21 
20 22 
20 23 
20 24 
20 25 
20 26 
20 27 
20 28 
20 29 
20 30 
20 31 
20 34 
20 45 
20 47 
20 56 
20 59 
20 62 
20 71 
20 72 
20 73 
20 74 
20 75 
20 76 
20 77 
20 78 
20 79 
20 80 
20 81 
20 85 
20 96 
20 116 
20 121 
20 132 
20 137 
20 154 
20 158 
20 166 
20 169 
20 173 
21 22 
21 23 
21 24 
21 25 
21 26 
21 27 
21 28 
21 29 
21 30 
21 31 
21 35 
21 40 
21 48 
21 52 
21 60 
21 63 
21 71 
21 76 
21 82 
21 83 
21 84 
21 85 
21 86 
21 87 
21 88 
21 89 
21 90 
21 91 
21 94 
21 110 
21 126 
21 127 
21 128 
21 129 
21 130 
21 131 
21 132 
21 133 
22 23 
22 24 
22 25 
22 26 
22 27 
22 28 
22 29 
22 30 
22 31 
22 36 
22 44 
22 49 
22 61 
22 67 
22 72 
22 79 
22 89 
22 92 
22 93 
22 94 
22 95 
22 96 
22 97 
22 98 
22 99 
22 100 
22 101 
22 107 
22 114 
22 122 
22 131 
22 135 
22 144 
22 156 
22 158 
22 164 
22 165 
23 24 
23 25 
23 26 
23 27 
23 28 
23 29 
23 30 
23 31 
23 33 
23 37 
23 50 
23 53 
23 62 
23 73 
23 80 
23 82 
23 83 
23 92 
23 99 
23 102 
23 103 
23 104 
23 105 
23 106 
23 107 
23 108 
23 109 
23 116 
23 133 
23 145 
23 150 
23 153 
23 157 
23 165 
23 167 
23 175 
24 25 
24 26 
24 27 
24 28 
24 29 
24 30 
24 31 
24 38 
24 42 
24 46 
24 49 
24 60 
24 74 
24 79 
24 91 
24 98 
24 102 
24 105 
24 110 
24 111 
24 112 
24 113 
24 114 
24 115 
24 116 
24 117 
24 118 
24 125 
24 133 
24 138 
24 147 
24 151 
24 168 
24 171 
24 173 
25 26 
25 27 
25 28 
25 29 
25 30 
25 31 
25 32 
25 39 
25 51 
25 67 
25 75 
25 77 
25 83 
25 87 
25 93 
25 97 
25 103 
25 105 
25 110 
25 111 
25 119 
25 120 
25 121 
25 122 
25 123 
25 124 
25 125 
25 128 
25 136 
25 142 
25 152 
25 153 
25 154 
25 155 
26 27 
26 28 
26 29 
26 30 
26 31 
26 39 
26 40 
26 54 
26 56 
26 65 
26 70 
26 73 
26 81 
26 82 
26 85 
26 94 
26 100 
26 112 
26 122 
26 134 
26 139 
26 141 
26 142 
26 143 
26 144 
26 145 
26 146 
26 147 
26 151 
26 160 
26 167 
26 170 
26 176 
27 28 
27 29 
27 30 
27 31 
27 35 
27 41 
27 52 
27 55 
27 64 
27 68 
27 77 
27 78 
27 88 
27 98 
27 101 
27 103 
27 108 
27 112 
27 115 
27 120 
27 129 
27 137 
27 143 
27 144 
27 148 
27 152 
27 156 
27 157 
27 169 
27 170 
27 171 
27 172 
28 29 
28 30 
28 31 
28 41 
28 42 
28 54 
28 58 
28 59 
28 66 
28 75 
28 86 
28 89 
28 92 
28 99 
28 106 
28 113 
28 115 
28 119 
28 129 
28 132 
28 136 
28 146 
28 152 
28 158 
28 159 
28 160 
28 161 
28 163 
28 168 
28 175 
28 176 
29 30 
29 31 
29 36 
29 43 
29 55 
29 57 
29 63 
29 65 
29 78 
29 81 
29 84 
29 87 
29 100 
29 106 
29 109 
29 113 
29 114 
29 121 
29 124 
29 130 
29 140 
29 147 
29 148 
29 149 
29 153 
29 162 
29 163 
29 165 
29 166 
29 172 
30 31 
30 43 
30 45 
30 48 
30 58 
30 61 
30 68 
30 80 
30 88 
30 93 
30 107 
30 109 
30 117 
30 118 
30 124 
30 127 
30 130 
30 138 
30 139 
30 142 
30 146 
30 150 
30 155 
30 159 
30 161 
30 164 
30 170 
30 171 
30 174 
31 44 
31 50 
31 51 
31 69 
31 70 
31 71 
31 76 
31 90 
31 97 
31 101 
31 104 
31 117 
31 118 
31 125 
31 131 
31 134 
31 140 
31 143 
31 149 
31 154 
31 157 
31 161 
31 162 
31 172 
31 173 
31 174 
31 175 
31 176 
32 33 
32 34 
32 35 
32 36 
32 37 
32 38 
32 39 
32 40 
32 41 
32 42 
32 43 
32 44 
32 45 
32 46 
32 47 
32 48 
32 49 
32 50 
32 51 
32 52 
32 53 
32 54 
32 55 
32 56 
32 57 
32 58 
32 67 
32 77 
32 87 
32 97 
32 105 
32 111 
32 128 
32 136 
32 142 
32 152 
32 153 
32 154 
32 155 
33 34 
33 35 
33 36 
33 37 
33 38 
33 39 
33 40 
33 41 
33 42 
33 43 
33 44 
33 45 
33 46 
33 53 
33 59 
33 60 
33 61 
33 62 
33 63 
33 64 
33 65 
33 66 
33 67 
33 68 
33 69 
33 70 
33 80 
33 83 
33 99 
33 116 
33 133 
33 145 
33 150 
33 153 
33 157 
33 165 
33 167 
33 175 
34 35 
34 36 
34 37 
34 38 
34 39 
34 40 
34 41 
34 42 
34 43 
34 44 
34 45 
34 47 
34 59 
34 66 
34 71 
34 72 
34 73 
34 74 
34 75 
34 76 
34 77 
34 78 
34 79 
34 80 
34 81 
34 86 
34 96 
34 104 
34 111 
34 120 
34 127 
34 135 
34 141 
34 148 
34 149 
34 150 
34 151 
35 36 
35 37 
35 38 
35 39 
35 40 
35 41 
35 42 
35 43 
35 44 
35 45 
35 48 
35 52 
35 60 
35 64 
35 71 
35 78 
35 82 
35 83 
35 84 
35 85 
35 86 
35 87 
35 88 
35 89 
35 90 
35 91 
35 101 
35 108 
35 115 
35 120 
35 144 
35 152 
35 169 
35 170 
35 171 
35 172 
36 37 
36 38 
36 39 
36 40 
36 41 
36 42 
36 43 
36 44 
36 45 
36 49 
36 57 
36 61 
36 63 
36 72 
36 81 
36 87 
36 92 
36 93 
36 94 
36 95 
36 96 
36 97 
36 98 
36 99 
36 100 
36 101 
36 109 
36 113 
36 124 
36 140 
36 147 
36 148 
36 165 
36 166 
36 172 
37 38 
37 39 
37 40 
37 41 
37 42 
37 43 
37 44 
37 45 
37 50 
37 53 
37 62 
37 64 
37 73 
37 74 
37 82 
37 84 
37 92 
37 95 
37 102 
37 103 
37 104 
37 105 
37 106 
37 107 
37 108 
37 109 
37 119 
37 126 
37 134 
37 135 
37 136 
37 137 
37 138 
37 139 
37 140 
38 39 
38 40 
38 41 
38 42 
38 43 
38 44 
38 45 
38 47 
38 49 
38 60 
38 74 
38 90 
38 95 
38 102 
38 108 
38 110 
38 111 
38 112 
38 113 
38 114 
38 115 
38 116 
38 117 
38 118 
38 123 
38 128 
38 141 
38 159 
38 162 
38 164 
38 166 
38 167 
38 168 
39 40 
39 41 
39 42 
39 43 
39 44 
39 45 
39 51 
39 54 
39 65 
39 73 
39 75 
39 83 
39 85 
39 93 
39 94 
39 103 
39 110 
39 119 
39 120 
39 121 
39 122 
39 123 
39 124 
39 125 
39 134 
39 141 
39 142 
39 143 
39 144 
39 145 
39 146 
39 147 
40 41 
40 42 
40 43 
40 44 
40 45 
40 52 
40 56 
40 63 
40 70 
40 76 
40 81 
40 82 
40 94 
40 100 
40 110 
40 112 
40 122 
40 126 
40 127 
40 128 
40 129 
40 130 
40 131 
40 132 
40 133 
40 139 
40 151 
40 160 
40 167 
40 170 
40 176 
41 42 
41 43 
41 44 
41 45 
41 55 
41 58 
41 66 
41 68 
41 75 
41 77 
41 88 
41 89 
41 92 
41 98 
41 103 
41 112 
41 115 
41 129 
41 132 
41 136 
41 137 
41 143 
41 146 
41 148 
41 156 
41 157 
41 163 
41 168 
41 175 
41 176 
42 43 
42 44 
42 45 
42 46 
42 54 
42 59 
42 79 
42 86 
42 91 
42 98 
42 99 
42 105 
42 106 
42 113 
42 119 
42 125 
42 129 
42 133 
42 138 
42 147 
42 151 
42 152 
42 158 
42 159 
42 160 
42 161 
42 168 
42 171 
42 173 
43 44 
43 45 
43 55 
43 58 
43 61 
43 65 
43 78 
43 80 
43 84 
43 88 
43 100 
43 106 
43 107 
43 114 
43 117 
43 121 
43 124 
43 127 
43 130 
43 138 
43 142 
43 149 
43 153 
43 159 
43 162 
43 163 
43 170 
43 174 
44 45 
44 50 
44 67 
44 70 
44 76 
44 79 
44 89 
44 90 
44 101 
44 107 
44 114 
44 118 
44 122 
44 125 
44 131 
44 135 
44 140 
44 143 
44 144 
44 149 
44 154 
44 156 
44 158 
44 164 
44 165 
44 174 
44 175 
45 48 
45 56 
45 62 
45 68 
45 85 
45 93 
45 96 
45 109 
45 116 
45 118 
45 121 
45 130 
45 132 
45 137 
45 139 
45 146 
45 150 
45 154 
45 155 
45 158 
45 161 
45 164 
45 166 
45 169 
45 171 
45 173 
46 47 
46 48 
46 49 
46 50 
46 51 
46 52 
46 53 
46 54 
46 55 
46 56 
46 57 
46 58 
46 59 
46 60 
46 61 
46 62 
46 63 
46 64 
46 65 
46 66 
46 67 
46 68 
46 69 
46 70 
46 79 
46 91 
46 98 
46 105 
46 125 
46 133 
46 138 
46 147 
46 151 
46 168 
46 171 
46 173 
47 48 
47 49 
47 50 
47 51 
47 52 
47 53 
47 54 
47 55 
47 56 
47 57 
47 58 
47 59 
47 71 
47 72 
47 73 
47 74 
47 75 
47 76 
47 77 
47 78 
47 79 
47 80 
47 81 
47 90 
47 95 
47 108 
47 123 
47 128 
47 141 
47 159 
47 162 
47 164 
47 166 
47 167 
47 168 
48 49 
48 50 
48 51 
48 52 
48 53 
48 54 
48 55 
48 56 
48 57 
48 58 
48 60 
48 68 
48 71 
48 82 
48 83 
48 84 
48 85 
48 86 
48 87 
48 88 
48 89 
48 90 
48 91 
48 93 
48 109 
48 118 
48 130 
48 139 
48 146 
48 150 
48 155 
48 161 
48 164 
48 171 
49 50 
49 51 
49 52 
49 53 
49 54 
49 55 
49 56 
49 57 
49 58 
49 60 
49 61 
49 72 
49 74 
49 92 
49 93 
49 94 
49 95 
49 96 
49 97 
49 98 
49 99 
49 100 
49 101 
49 102 
49 110 
49 111 
49 112 
49 113 
49 114 
49 115 
49 116 
49 117 
49 118 
50 51 
50 52 
50 53 
50 54 
50 55 
50 56 
50 57 
50 58 
50 62 
50 70 
50 73 
50 76 
50 82 
50 90 
50 92 
50 101 
50 102 
50 103 
50 104 
50 105 
50 106 
50 107 
50 108 
50 109 
50 118 
50 125 
50 140 
50 143 
50 149 
50 154 
50 174 
50 175 
51 52 
51 53 
51 54 
51 55 
51 56 
51 57 
51 58 
51 69 
51 71 
51 75 
51 83 
51 93 
51 97 
51 103 
51 104 
51 110 
51 117 
51 119 
51 120 
51 121 
51 122 
51 123 
51 124 
51 125 
51 131 
51 134 
51 157 
51 161 
51 162 
51 172 
51 173 
51 176 
52 53 
52 54 
52 55 
52 56 
52 57 
52 58 
52 63 
52 64 
52 76 
52 78 
52 94 
52 101 
52 108 
52 110 
52 115 
52 120 
52 126 
52 127 
52 128 
52 129 
52 130 
52 131 
52 132 
52 133 
52 144 
52 152 
52 169 
52 170 
52 171 
52 172 
53 54 
53 55 
53 56 
53 57 
53 58 
53 64 
53 74 
53 80 
53 83 
53 84 
53 95 
53 99 
53 116 
53 119 
53 126 
53 133 
53 134 
53 135 
53 136 
53 137 
53 138 
53 139 
53 140 
53 145 
53 150 
53 153 
53 157 
53 165 
53 167 
53 175 
54 55 
54 56 
54 57 
54 58 
54 59 
54 65 
54 73 
54 85 
54 86 
54 94 
54 99 
54 106 
54 113 
54 119 
54 129 
54 134 
54 141 
54 142 
54 143 
54 144 
54 145 
54 146 
54 147 
54 152 
54 158 
54 159 
54 160 
54 161 
55 56 
55 57 
55 58 
55 65 
55 68 
55 77 
55 78 
55 84 
55 88 
55 98 
55 100 
55 103 
55 106 
55 112 
55 114 
55 121 
55 129 
55 130 
55 137 
55 143 
55 148 
55 149 
55 153 
55 156 
55 157 
55 162 
55 163 
56 57 
56 58 
56 62 
56 70 
56 81 
56 82 
56 85 
56 96 
56 100 
56 112 
56 116 
56 121 
56 122 
56 132 
56 137 
56 139 
56 151 
56 154 
56 158 
56 160 
56 166 
56 167 
56 169 
56 170 
56 173 
56 176 
57 58 
57 63 
57 69 
57 72 
57 81 
57 87 
57 91 
57 102 
57 109 
57 113 
57 123 
57 124 
57 126 
57 140 
57 145 
57 147 
57 148 
57 155 
57 156 
57 160 
57 163 
57 165 
57 166 
57 169 
57 172 
57 174 
58 61 
58 66 
58 75 
58 80 
58 88 
58 89 
58 92 
58 107 
58 115 
58 117 
58 124 
58 127 
58 132 
58 136 
58 138 
58 142 
58 146 
58 159 
58 163 
58 168 
58 170 
58 174 
58 175 
58 176 
59 60 
59 61 
59 62 
59 63 
59 64 
59 65 
59 66 
59 67 
59 68 
59 69 
59 70 
59 71 
59 72 
59 73 
59 74 
59 75 
59 76 
59 77 
59 78 
59 79 
59 80 
59 81 
59 86 
59 99 
59 106 
59 113 
59 119 
59 129 
59 152 
59 158 
59 159 
59 160 
59 161 
60 61 
60 62 
60 63 
60 64 
60 65 
60 66 
60 67 
60 68 
60 69 
60 70 
60 71 
60 74 
60 82 
60 83 
60 84 
60 85 
60 86 
60 87 
60 88 
60 89 
60 90 
60 91 
60 102 
60 110 
60 111 
60 112 
60 113 
60 114 
60 115 
60 116 
60 117 
60 118 
61 62 
61 63 
61 64 
61 65 
61 66 
61 67 
61 68 
61 69 
61 70 
61 72 
61 80 
61 88 
61 92 
61 93 
61 94 
61 95 
61 96 
61 97 
61 98 
61 99 
61 100 
61 101 
61 107 
61 117 
61 124 
61 127 
61 138 
61 142 
61 159 
61 170 
61 174 
62 63 
62 64 
62 65 
62 66 
62 67 
62 68 
62 69 
62 70 
62 73 
62 82 
62 85 
62 92 
62 96 
62 102 
62 103 
62 104 
62 105 
62 106 
62 107 
62 108 
62 109 
62 116 
62 121 
62 132 
62 137 
62 154 
62 158 
62 166 
62 169 
62 173 
63 64 
63 65 
63 66 
63 67 
63 68 
63 69 
63 70 
63 76 
63 81 
63 87 
63 94 
63 109 
63 110 
63 113 
63 124 
63 126 
63 127 
63 128 
63 129 
63 130 
63 131 
63 132 
63 133 
63 140 
63 147 
63 148 
63 165 
63 166 
63 172 
64 65 
64 66 
64 67 
64 68 
64 69 
64 70 
64 74 
64 78 
64 84 
64 95 
64 101 
64 108 
64 115 
64 119 
64 120 
64 126 
64 134 
64 135 
64 136 
64 137 
64 138 
64 139 
64 140 
64 144 
64 152 
64 169 
64 170 
64 171 
64 172 
65 66 
65 67 
65 68 
65 69 
65 70 
65 73 
65 78 
65 84 
65 85 
65 94 
65 100 
65 106 
65 114 
65 121 
65 130 
65 134 
65 141 
65 142 
65 143 
65 144 
65 145 
65 146 
65 147 
65 149 
65 153 
65 162 
65 163 
66 67 
66 68 
66 69 
66 70 
66 75 
66 86 
66 89 
66 92 
66 96 
66 104 
66 111 
66 115 
66 120 
66 127 
66 132 
66 135 
66 136 
66 141 
66 146 
66 148 
66 149 
66 150 
66 151 
66 163 
66 168 
66 175 
66 176 
67 68 
67 69 
67 70 
67 77 
67 79 
67 87 
67 89 
67 97 
67 105 
67 107 
67 111 
67 114 
67 122 
67 128 
67 131 
67 135 
67 136 
67 142 
67 144 
67 152 
67 153 
67 154 
67 155 
67 156 
67 158 
67 164 
67 165 
68 69 
68 70 
68 77 
68 88 
68 93 
68 98 
68 103 
68 109 
68 112 
68 118 
68 129 
68 130 
68 137 
68 139 
68 143 
68 146 
68 148 
68 150 
68 155 
68 156 
68 157 
68 161 
68 164 
68 171 
69 70 
69 71 
69 72 
69 91 
69 97 
69 102 
69 104 
69 117 
69 123 
69 126 
69 131 
69 134 
69 145 
69 155 
69 156 
69 157 
69 160 
69 161 
69 162 
69 163 
69 169 
69 172 
69 173 
69 174 
69 176 
70 76 
70 81 
70 82 
70 90 
70 100 
70 101 
70 112 
70 118 
70 122 
70 125 
70 139 
70 140 
70 143 
70 149 
70 151 
70 154 
70 160 
70 167 
70 170 
70 174 
70 175 
70 176 
71 72 
71 73 
71 74 
71 75 
71 76 
71 77 
71 78 
71 79 
71 80 
71 81 
71 82 
71 83 
71 84 
71 85 
71 86 
71 87 
71 88 
71 89 
71 90 
71 91 
71 97 
71 104 
71 117 
71 131 
71 134 
71 157 
71 161 
71 162 
71 172 
71 173 
71 176 
72 73 
72 74 
72 75 
72 76 
72 77 
72 78 
72 79 
72 80 
72 81 
72 91 
72 92 
72 93 
72 94 
72 95 
72 96 
72 97 
72 98 
72 99 
72 100 
72 101 
72 102 
72 123 
72 126 
72 145 
72 155 
72 156 
72 160 
72 163 
72 169 
72 174 
73 74 
73 75 
73 76 
73 77 
73 78 
73 79 
73 80 
73 81 
73 82 
73 85 
73 92 
73 94 
73 102 
73 103 
73 104 
73 105 
73 106 
73 107 
73 108 
73 109 
73 134 
73 141 
73 142 
73 143 
73 144 
73 145 
73 146 
73 147 
74 75 
74 76 
74 77 
74 78 
74 79 
74 80 
74 81 
74 84 
74 95 
74 102 
74 110 
74 111 
74 112 
74 113 
74 114 
74 115 
74 116 
74 117 
74 118 
74 119 
74 126 
74 134 
74 135 
74 136 
74 137 
74 138 
74 139 
74 140 
75 76 
75 77 
75 78 
75 79 
75 80 
75 81 
75 83 
75 89 
75 92 
75 93 
75 103 
75 110 
75 115 
75 119 
75 120 
75 121 
75 122 
75 123 
75 124 
75 125 
75 132 
75 136 
75 146 
75 163 
75 168 
75 175 
75 176 
76 77 
76 78 
76 79 
76 80 
76 81 
76 90 
76 94 
76 101 
76 110 
76 118 
76 125 
76 126 
76 127 
76 128 
76 129 
76 130 
76 131 
76 132 
76 133 
76 140 
76 143 
76 149 
76 154 
76 174 
76 175 
77 78 
77 79 
77 80 
77 81 
77 87 
77 88 
77 97 
77 98 
77 103 
77 105 
77 111 
77 112 
77 128 
77 129 
77 136 
77 137 
77 142 
77 143 
77 148 
77 152 
77 153 
77 154 
77 155 
77 156 
77 157 
78 79 
78 80 
78 81 
78 84 
78 100 
78 101 
78 106 
78 108 
78 114 
78 115 
78 120 
78 121 
78 130 
78 144 
78 149 
78 152 
78 153 
78 162 
78 163 
78 169 
78 170 
78 171 
78 172 
79 80 
79 81 
79 89 
79 91 
79 98 
79 105 
79 107 
79 114 
79 122 
79 125 
79 131 
79 133 
79 135 
79 138 
79 144 
79 147 
79 151 
79 156 
79 158 
79 164 
79 165 
79 168 
79 171 
79 173 
80 81 
80 83 
80 88 
80 99 
80 107 
80 116 
80 117 
80 124 
80 127 
80 133 
80 138 
80 142 
80 145 
80 150 
80 153 
80 157 
80 159 
80 165 
80 167 
80 170 
80 174 
80 175 
81 82 
81 87 
81 100 
81 109 
81 112 
81 113 
81 122 
81 124 
81 139 
81 140 
81 147 
81 148 
81 151 
81 160 
81 165 
81 166 
81 167 
81 170 
81 172 
81 176 
82 83 
82 84 
82 85 
82 86 
82 87 
82 88 
82 89 
82 90 
82 91 
82 92 
82 100 
82 102 
82 103 
82 104 
82 105 
82 106 
82 107 
82 108 
82 109 
82 112 
82 122 
82 139 
82 151 
82 160 
82 167 
82 170 
82 176 
83 84 
83 85 
83 86 
83 87 
83 88 
83 89 
83 90 
83 91 
83 93 
83 99 
83 103 
83 110 
83 116 
83 119 
83 120 
83 121 
83 122 
83 123 
83 124 
83 125 
83 133 
83 145 
83 150 
83 153 
83 157 
83 165 
83 167 
83 175 
84 85 
84 86 
84 87 
84 88 
84 89 
84 90 
84 91 
84 95 
84 100 
84 106 
84 114 
84 119 
84 121 
84 126 
84 130 
84 134 
84 135 
84 136 
84 137 
84 138 
84 139 
84 140 
84 149 
84 153 
84 162 
84 163 
85 86 
85 87 
85 88 
85 89 
85 90 
85 91 
85 94 
85 96 
85 116 
85 121 
85 132 
85 134 
85 137 
85 141 
85 142 
85 143 
85 144 
85 145 
85 146 
85 147 
85 154 
85 158 
85 166 
85 169 
85 173 
86 87 
86 88 
86 89 
86 90 
86 91 
86 96 
86 99 
86 104 
86 106 
86 111 
86 113 
86 119 
86 120 
86 127 
86 129 
86 135 
86 141 
86 148 
86 149 
86 150 
86 151 
86 152 
86 158 
86 159 
86 160 
86 161 
87 88 
87 89 
87 90 
87 91 
87 97 
87 105 
87 109 
87 111 
87 113 
87 124 
87 128 
87 136 
87 140 
87 142 
87 147 
87 148 
87 152 
87 153 
87 154 
87 155 
87 165 
87 166 
87 172 
88 89 
88 90 
88 91 
88 98 
88 103 
88 107 
88 112 
88 117 
88 124 
88 127 
88 129 
88 137 
88 138 
88 142 
88 143 
88 148 
88 156 
88 157 
88 159 
88 170 
88 174 
89 90 
89 91 
89 92 
89 107 
89 114 
89 115 
89 122 
89 131 
89 132 
89 135 
89 136 
89 144 
89 146 
89 156 
89 158 
89 163 
89 164 
89 165 
89 168 
89 175 
89 176 
90 91 
90 95 
90 101 
90 108 
90 118 
90 123 
90 125 
90 128 
90 140 
90 141 
90 143 
90 149 
90 154 
90 159 
90 162 
90 164 
90 166 
90 167 
90 168 
90 174 
90 175 
91 98 
91 102 
91 105 
91 123 
91 125 
91 126 
91 133 
91 138 
91 145 
91 147 
91 151 
91 155 
91 156 
91 160 
91 163 
91 168 
91 169 
91 171 
91 173 
91 174 
92 93 
92 94 
92 95 
92 96 
92 97 
92 98 
92 99 
92 100 
92 101 
92 102 
92 103 
92 104 
92 105 
92 106 
92 107 
92 108 
92 109 
92 115 
92 132 
92 136 
92 146 
92 163 
92 168 
92 175 
92 176 
93 94 
93 95 
93 96 
93 97 
93 98 
93 99 
93 100 
93 101 
93 103 
93 109 
93 110 
93 118 
93 119 
93 120 
93 121 
93 122 
93 123 
93 124 
93 125 
93 130 
93 139 
93 146 
93 150 
93 155 
93 161 
93 164 
93 171 
94 95 
94 96 
94 97 
94 98 
94 99 
94 100 
94 101 
94 110 
94 126 
94 127 
94 128 
94 129 
94 130 
94 131 
94 132 
94 133 
94 134 
94 141 
94 142 
94 143 
94 144 
94 145 
94 146 
94 147 
95 96 
95 97 
95 98 
95 99 
95 100 
95 101 
95 108 
95 119 
95 123 
95 126 
95 128 
95 134 
95 135 
95 136 
95 137 
95 138 
95 139 
95 140 
95 141 
95 159 
95 162 
95 164 
95 166 
95 167 
95 168 
96 97 
96 98 
96 99 
96 100 
96 101 
96 104 
96 111 
96 116 
96 120 
96 121 
96 127 
96 132 
96 135 
96 137 
96 141 
96 148 
96 149 
96 150 
96 151 
96 154 
96 158 
96 166 
96 169 
96 173 
97 98 
97 99 
97 100 
97 101 
97 104 
97 105 
97 111 
97 117 
97 128 
97 131 
97 134 
97 136 
97 142 
97 152 
97 153 
97 154 
97 155 
97 157 
97 161 
97 162 
97 172 
97 173 
97 176 
98 99 
98 100 
98 101 
98 103 
98 105 
98 112 
98 125 
98 129 
98 133 
98 137 
98 138 
98 143 
98 147 
98 148 
98 151 
98 156 
98 157 
98 168 
98 171 
98 173 
99 100 
99 101 
99 106 
99 113 
99 116 
99 119 
99 129 
99 133 
99 145 
99 150 
99 152 
99 153 
99 157 
99 158 
99 159 
99 160 
99 161 
99 165 
99 167 
99 175 
100 101 
100 106 
100 112 
100 114 
100 121 
100 122 
100 130 
100 139 
100 149 
100 151 
100 153 
100 160 
100 162 
100 163 
100 167 
100 170 
100 176 
101 108 
101 115 
101 118 
101 120 
101 125 
101 140 
101 143 
101 144 
101 149 
101 152 
101 154 
101 169 
101 170 
101 171 
101 172 
101 174 
101 175 
102 103 
102 104 
102 105 
102 106 
102 107 
102 108 
102 109 
102 110 
102 111 
102 112 
102 113 
102 114 
102 115 
102 116 
102 117 
102 118 
102 123 
102 126 
102 145 
102 155 
102 156 
102 160 
102 163 
102 169 
102 174 
103 104 
103 105 
103 106 
103 107 
103 108 
103 109 
103 110 
103 112 
103 119 
103 120 
103 121 
103 122 
103 123 
103 124 
103 125 
103 129 
103 137 
103 143 
103 148 
103 156 
103 157 
104 105 
104 106 
104 107 
104 108 
104 109 
104 111 
104 117 
104 120 
104 127 
104 131 
104 134 
104 135 
104 141 
104 148 
104 149 
104 150 
104 151 
104 157 
104 161 
104 162 
104 172 
104 173 
104 176 
105 106 
105 107 
105 108 
105 109 
105 111 
105 125 
105 128 
105 133 
105 136 
105 138 
105 142 
105 147 
105 151 
105 152 
105 153 
105 154 
105 155 
105 168 
105 171 
105 173 
106 107 
106 108 
106 109 
106 113 
106 114 
106 119 
106 121 
106 129 
106 130 
106 149 
106 152 
106 153 
106 158 
106 159 
106 160 
106 161 
106 162 
106 163 
107 108 
107 109 
107 114 
107 117 
107 122 
107 124 
107 127 
107 131 
107 135 
107 138 
107 142 
107 144 
107 156 
107 158 
107 159 
107 164 
107 165 
107 170 
107 174 
108 109 
108 115 
108 120 
108 123 
108 128 
108 141 
108 144 
108 152 
108 159 
108 162 
108 164 
108 166 
108 167 
108 168 
108 169 
108 170 
108 171 
108 172 
109 113 
109 118 
109 124 
109 130 
109 139 
109 140 
109 146 
109 147 
109 148 
109 150 
109 155 
109 161 
109 164 
109 165 
109 166 
109 171 
109 172 
110 111 
110 112 
110 113 
110 114 
110 115 
110 116 
110 117 
110 118 
110 119 
110 120 
110 121 
110 122 
110 123 
110 124 
110 125 
110 126 
110 127 
110 128 
110 129 
110 130 
110 131 
110 132 
110 133 
111 112 
111 113 
111 114 
111 115 
111 116 
111 117 
111 118 
111 120 
111 127 
111 128 
111 135 
111 136 
111 141 
111 142 
111 148 
111 149 
111 150 
111 151 
111 152 
111 153 
111 154 
111 155 
112 113 
112 114 
112 115 
112 116 
112 117 
112 118 
112 122 
112 129 
112 137 
112 139 
112 143 
112 148 
112 151 
112 156 
112 157 
112 160 
112 167 
112 170 
112 176 
113 114 
113 115 
113 116 
113 117 
113 118 
113 119 
113 124 
113 129 
113 140 
113 147 
113 148 
113 152 
113 158 
113 159 
113 160 
113 161 
113 165 
113 166 
113 172 
114 115 
114 116 
114 117 
114 118 
114 121 
114 122 
114 130 
114 131 
114 135 
114 144 
114 149 
114 153 
114 156 
114 158 
114 162 
114 163 
114 164 
114 165 
115 116 
115 117 
115 118 
115 120 
115 132 
115 136 
115 144 
115 146 
115 152 
115 163 
115 168 
115 169 
115 170 
115 171 
115 172 
115 175 
115 176 
116 117 
116 118 
116 121 
116 132 
116 133 
116 137 
116 145 
116 150 
116 153 
116 154 
116 157 
116 158 
116 165 
116 166 
116 167 
116 169 
116 173 
116 175 
117 118 
117 124 
117 127 
117 131 
117 134 
117 138 
117 142 
117 157 
117 159 
117 161 
117 162 
117 170 
117 172 
117 173 
117 174 
117 176 
118 125 
118 130 
118 139 
118 140 
118 143 
118 146 
118 149 
118 150 
118 154 
118 155 
118 161 
118 164 
118 171 
118 174 
118 175 
119 120 
119 121 
119 122 
119 123 
119 124 
119 125 
119 126 
119 129 
119 134 
119 135 
119 136 
119 137 
119 138 
119 139 
119 140 
119 152 
119 158 
119 159 
119 160 
119 161 
120 121 
120 122 
120 123 
120 124 
120 125 
120 127 
120 135 
120 141 
120 144 
120 148 
120 149 
120 150 
120 151 
120 152 
120 169 
120 170 
120 171 
120 172 
121 122 
121 123 
121 124 
121 125 
121 130 
121 132 
121 137 
121 149 
121 153 
121 154 
121 158 
121 162 
121 163 
121 166 
121 169 
121 173 
122 123 
122 124 
122 125 
122 131 
122 135 
122 139 
122 144 
122 151 
122 156 
122 158 
122 160 
122 164 
122 165 
122 167 
122 170 
122 176 
123 124 
123 125 
123 126 
123 128 
123 141 
123 145 
123 155 
123 156 
123 159 
123 160 
123 162 
123 163 
123 164 
123 166 
123 167 
123 168 
123 169 
123 174 
124 125 
124 127 
124 138 
124 140 
124 142 
124 147 
124 148 
124 159 
124 165 
124 166 
124 170 
124 172 
124 174 
125 133 
125 138 
125 140 
125 143 
125 147 
125 149 
125 151 
125 154 
125 168 
125 171 
125 173 
125 174 
125 175 
126 127 
126 128 
126 129 
126 130 
126 131 
126 132 
126 133 
126 134 
126 135 
126 136 
126 137 
126 138 
126 139 
126 140 
126 145 
126 155 
126 156 
126 160 
126 163 
126 169 
126 174 
127 128 
127 129 
127 130 
127 131 
127 132 
127 133 
127 135 
127 138 
127 141 
127 142 
127 148 
127 149 
127 150 
127 151 
127 159 
127 170 
127 174 
128 129 
128 130 
128 131 
128 132 
128 133 
128 136 
128 141 
128 142 
128 152 
128 153 
128 154 
128 155 
128 159 
128 162 
128 164 
128 166 
128 167 
128 168 
129 130 
129 131 
129 132 
129 133 
129 137 
129 143 
129 148 
129 152 
129 156 
129 157 
129 158 
129 159 
129 160 
129 161 
130 131 
130 132 
130 133 
130 139 
130 146 
130 149 
130 150 
130 153 
130 155 
130 161 
130 162 
130 163 
130 164 
130 171 
131 132 
131 133 
131 134 
131 135 
131 144 
131 156 
131 157 
131 158 
131 161 
131 162 
131 164 
131 165 
131 172 
131 173 
131 176 
132 133 
132 136 
132 137 
132 146 
132 154 
132 158 
132 163 
132 166 
132 168 
132 169 
132 173 
132 175 
132 176 
133 138 
133 145 
133 147 
133 150 
133 151 
133 153 
133 157 
133 165 
133 167 
133 168 
133 171 
133 173 
133 175 
134 135 
134 136 
134 137 
134 138 
134 139 
134 140 
134 141 
134 142 
134 143 
134 144 
134 145 
134 146 
134 147 
134 157 
134 161 
134 162 
134 172 
134 173 
134 176 
135 136 
135 137 
135 138 
135 139 
135 140 
135 141 
135 144 
135 148 
135 149 
135 150 
135 151 
135 156 
135 158 
135 164 
135 165 
136 137 
136 138 
136 139 
136 140 
136 142 
136 146 
136 152 
136 153 
136 154 
136 155 
136 163 
136 168 
136 175 
136 176 
137 138 
137 139 
137 140 
137 143 
137 148 
137 154 
137 156 
137 157 
137 158 
137 166 
137 169 
137 173 
138 139 
138 140 
138 142 
138 147 
138 151 
138 159 
138 168 
138 170 
138 171 
138 173 
138 174 
139 140 
139 146 
139 150 
139 151 
139 155 
139 160 
139 161 
139 164 
139 167 
139 170 
139 171 
139 176 
140 143 
140 147 
140 148 
140 149 
140 154 
140 165 
140 166 
140 172 
140 174 
140 175 
141 142 
141 143 
141 144 
141 145 
141 146 
141 147 
141 148 
141 149 
141 150 
141 151 
141 159 
141 162 
141 164 
141 166 
141 167 
141 168 
142 143 
142 144 
142 145 
142 146 
142 147 
142 152 
142 153 
142 154 
142 155 
142 159 
142 170 
142 174 
143 144 
143 145 
143 146 
143 147 
143 148 
143 149 
143 154 
143 156 
143 157 
143 174 
143 175 
144 145 
144 146 
144 147 
144 152 
144 156 
144 158 
144 164 
144 165 
144 169 
144 170 
144 171 
144 172 
145 146 
145 147 
145 150 
145 153 
145 155 
145 156 
145 157 
145 160 
145 163 
145 165 
145 167 
145 169 
145 174 
145 175 
146 147 
146 150 
146 155 
146 161 
146 163 
146 164 
146 168 
146 171 
146 175 
146 176 
147 148 
147 151 
147 165 
147 166 
147 168 
147 171 
147 172 
147 173 
148 149 
148 150 
148 151 
148 156 
148 157 
148 165 
148 166 
148 172 
149 150 
149 151 
149 153 
149 154 
149 162 
149 163 
149 174 
149 175 
150 151 
150 153 
150 155 
150 157 
150 161 
150 164 
150 165 
150 167 
150 171 
150 175 
151 160 
151 167 
151 168 
151 170 
151 171 
151 173 
151 176 
152 153 
152 154 
152 155 
152 158 
152 159 
152 160 
152 161 
152 169 
152 170 
152 171 
152 172 
153 154 
153 155 
153 157 
153 162 
153 163 
153 165 
153 167 
153 175 
154 155 
154 158 
154 166 
154 169 
154 173 
154 174 
154 175 
155 156 
155 160 
155 161 
155 163 
155 164 
155 169 
155 171 
155 174 
156 157 
156 158 
156 160 
156 163 
156 164 
156 165 
156 169 
156 174 
157 161 
157 162 
157 165 
157 167 
157 172 
157 173 
157 175 
157 176 
158 159 
158 160 
158 161 
158 164 
158 165 
158 166 
158 169 
158 173 
159 160 
159 161 
159 162 
159 164 
159 166 
159 167 
159 168 
159 170 
159 174 
160 161 
160 163 
160 167 
160 169 
160 170 
160 174 
160 176 
161 162 
161 164 
161 171 
161 172 
161 173 
161 176 
162 163 
162 164 
162 166 
162 167 
162 168 
162 172 
162 173 
162 176 
163 168 
163 169 
163 174 
163 175 
163 176 
164 165 
164 166 
164 167 
164 168 
164 171 
165 166 
165 167 
165 172 
165 175 
166 167 
166 168 
166 169 
166 172 
166 173 
167 168 
167 170 
167 175 
167 176 
168 171 
168 173 
168 175 
168 176 
169 170 
169 171 
169 172 
169 173 
169 174 
170 171 
170 172 
170 174 
170 176 
171 172 
171 173 
172 173 
172 176 
173 176 
174 175 
175 176 
